
Gurobi 9.5.1 (linux64) logging started Sun Jul  3 00:40:36 2022

Set parameter LogFile to value "../results/logs/log_flickrEdges_20_20_2022_07_02_22_14.log"
Gurobi Optimizer version 9.5.1 build v9.5.1rc2 (linux64)
Thread count: 8 physical cores, 8 logical processors, using up to 8 threads
Optimize a model with 424370 rows, 211876 columns and 1959129 nonzeros
Model fingerprint: 0xf82a1c42
Variable types: 0 continuous, 211876 integer (211876 binary)
Coefficient statistics:
  Matrix range     [1e+00, 2e+01]
  Objective range  [1e+00, 1e+00]
  Bounds range     [1e+00, 1e+00]
  RHS range        [1e+00, 2e+01]
Found heuristic solution: objective 15808.000000
Presolve removed 1409 rows and 131736 columns (presolve time = 5s) ...
Presolve removed 1409 rows and 131736 columns (presolve time = 10s) ...
Presolve removed 1412 rows and 131747 columns (presolve time = 15s) ...
Presolve removed 1412 rows and 131747 columns (presolve time = 20s) ...
Presolve removed 1418 rows and 131747 columns (presolve time = 26s) ...
Presolve removed 84334 rows and 132746 columns (presolve time = 30s) ...
Presolve removed 208244 rows and 134243 columns (presolve time = 35s) ...
Presolve removed 309213 rows and 135405 columns
Presolve time: 37.88s
Presolved: 115157 rows, 76471 columns, 624647 nonzeros
Variable types: 0 continuous, 76471 integer (73033 binary)

Deterministic concurrent LP optimizer: primal and dual simplex
Showing first log only...


Root simplex log...

Iteration    Objective       Primal Inf.    Dual Inf.      Time
       0    1.5824000e+04   0.000000e+00   1.403250e+03     39s
    5078    1.6079266e+04   0.000000e+00   3.115271e+02     40s
Warning: Markowitz tolerance tightened to 0.0625
    5639    1.6214162e+04   0.000000e+00   0.000000e+00     44s
    5639    1.6214162e+04   0.000000e+00   0.000000e+00     44s
Concurrent spin time: 0.59s

Solved with primal simplex

Root relaxation: objective 1.621416e+04, 5639 iterations, 6.08 seconds (13.29 work units)

    Nodes    |    Current Node    |     Objective Bounds      |     Work
 Expl Unexpl |  Obj  Depth IntInf | Incumbent    BestBd   Gap | It/Node Time

     0     0 16214.1618    0 5467 15808.0000 16214.1618  2.57%     -   50s
H    0     0                    15810.000000 16214.1618  2.56%     -   50s
H    0     0                    15811.000000 16214.1618  2.55%     -   50s
     0     0 16055.1198    0 5316 15811.0000 16055.1198  1.54%     -   73s
H    0     0                    15812.000000 16055.1198  1.54%     -   74s
H    0     0                    15820.000000 16055.1198  1.49%     -   74s
H    0     0                    15833.000000 16055.1198  1.40%     -   75s
     0     0 15995.8914    0 5015 15833.0000 15995.8914  1.03%     -   83s
     0     0 15955.6992    0 4755 15833.0000 15955.6992  0.77%     -   90s
     0     0 15927.3448    0 4666 15833.0000 15927.3448  0.60%     -   97s
     0     0 15921.9303    0 4676 15833.0000 15921.9303  0.56%     -  101s
     0     0 15902.1936    0 4743 15833.0000 15902.1936  0.44%     -  112s
     0     0 15893.7094    0 4857 15833.0000 15893.7094  0.38%     -  123s
     0     0 15887.4623    0 4910 15833.0000 15887.4623  0.34%     -  136s
     0     0 15885.8926    0 4968 15833.0000 15885.8926  0.33%     -  142s
     0     0 15881.7273    0 4887 15833.0000 15881.7273  0.31%     -  153s
     0     0 15880.9085    0 4937 15833.0000 15880.9085  0.30%     -  158s
     0     0 15878.5925    0 4869 15833.0000 15878.5925  0.29%     -  168s
     0     0 15878.0655    0 4706 15833.0000 15878.0655  0.28%     -  173s
     0     0 15876.5852    0 4372 15833.0000 15876.5852  0.28%     -  181s
     0     0 15875.9752    0 4046 15833.0000 15875.9752  0.27%     -  186s
     0     0 15875.8576    0 3996 15833.0000 15875.8576  0.27%     -  189s
     0     0 15875.8327    0 4021 15833.0000 15875.8327  0.27%     -  190s
     0     0 15875.8209    0 3936 15833.0000 15875.8209  0.27%     -  191s
     0     0 15858.1960    0 4812 15833.0000 15858.1960  0.16%     -  227s
     0     0 15855.4634    0 4903 15833.0000 15855.4634  0.14%     -  244s
     0     0 15850.4362    0 4954 15833.0000 15850.4362  0.11%     -  264s
     0     0 15847.9320    0 5239 15833.0000 15847.9320  0.09%     -  295s
     0     0 15846.7441    0 5350 15833.0000 15846.7441  0.09%     -  324s
     0     0 15845.7106    0 5582 15833.0000 15845.7106  0.08%     -  353s
     0     0 15845.0148    0 5760 15833.0000 15845.0148  0.08%     -  381s
     0     0 15844.4485    0 5905 15833.0000 15844.4485  0.07%     -  460s
     0     0 15844.1473    0 5959 15833.0000 15844.1473  0.07%     -  490s
     0     0 15844.0159    0 5997 15833.0000 15844.0159  0.07%     -  509s
     0     0 15842.2318    0 6244 15833.0000 15842.2318  0.06%     -  636s
     0     0 15841.0778    0 6327 15833.0000 15841.0778  0.05%     -  723s
     0     0 15840.0734    0 6419 15833.0000 15840.0734  0.04%     -  789s
     0     0 15839.5416    0 6515 15833.0000 15839.5416  0.04%     -  835s
     0     0 15839.1518    0 6530 15833.0000 15839.1518  0.04%     -  885s
     0     0 15838.7975    0 6708 15833.0000 15838.7975  0.04%     -  948s
     0     0 15838.5627    0 6842 15833.0000 15838.5627  0.04%     -  996s
     0     0 15838.3801    0 6918 15833.0000 15838.3801  0.03%     - 1033s
     0     0 15837.5700    0 6883 15833.0000 15837.5700  0.03%     - 1285s
     0     0 15836.9826    0 6810 15833.0000 15836.9826  0.03%     - 1369s
     0     0 15836.6315    0 6803 15833.0000 15836.6315  0.02%     - 1555s
     0     0 15836.2826    0 6750 15833.0000 15836.2826  0.02%     - 1651s
     0     0 15836.0223    0 6860 15833.0000 15836.0223  0.02%     - 1719s
     0     0 15835.7680    0 6913 15833.0000 15835.7680  0.02%     - 1810s
     0     0 15835.5953    0 6913 15833.0000 15835.5953  0.02%     - 1878s
     0     0 15835.0850    0 6823 15833.0000 15835.0850  0.01%     - 2073s
     0     0     cutoff    0      15833.0000 15833.0000  0.00%     - 2589s

Cutting planes:
  Gomory: 10
  Cover: 1550
  Implied bound: 47
  MIR: 1186
  StrongCG: 41
  GUB cover: 766
  RLT: 3253

Explored 1 nodes (344090 simplex iterations) in 2589.17 seconds (5975.85 work units)
Thread count was 8 (of 8 available processors)

Solution count 6: 15833 15820 15812 ... 15808

Optimal solution found (tolerance 0.00e+00)
Best objective 1.583300000000e+04, best bound 1.583300000000e+04, gap 0.0000%
